problems/csplib-prob015/SchursLemma-models/noch/O2/lingeling/model_1_3-4-10-solution000001.eprime-solution
language ESSENCE' 1.0

letting boxes_PartitionAsSet_ExplicitR5_ExplicitVarSizeWithMarker_Marker be [2, 2, 3, 3; int(1..4)]
letting boxes_PartitionAsSet_ExplicitR5_ExplicitVarSizeWithMarker_Values be
        [[1, 4, 1, 1, 1, 1, 1, 1, 1, 1; int(1..10)], [6, 7, 1, 1, 1, 1, 1, 1, 1, 1; int(1..10)],
         [2, 5, 10, 1, 1, 1, 1, 1, 1, 1; int(1..10)], [3, 8, 9, 1, 1, 1, 1, 1, 1, 1; int(1..10)]; int(1..4)]
