problems/csplib-prob015/SchursLemma-models/noch/O2/lingeling/model_1_3-4-10-solution000001.solution
language Essence 1.3

letting boxes be partition({1, 4}, {2, 5, 10}, {3, 8, 9}, {6, 7})
